
--- Job bchfcnet.gms Start 02/09/22 13:38:12 34.3.0 rac355f3 WEX-WEI x86 64bit/MS Windows
--- Applying:
    C:\GAMS\34\gmsprmNT.txt
--- GAMS Parameters defined
    Input C:\Users\dekhi\Desktop\gamsworld\FCNetLib\test\bchfcnet.gms
    PageSize 0
    ScrDir C:\Users\dekhi\Desktop\gamsworld\FCNetLib\test\225a\
    SysDir C:\GAMS\34\
    LogOption 3
    ErrMsg 1
    ErrorLog 99
    IDE 1
    ResLim 3600
    LstTitleLeftAligned 1
Licensee: Eval License                                   S211214|0002AW-GEN
          Ostfalia Hochschule fuer angewandte Wissenschaften        DCE1645
          C:\Users\dekhi\Documents\GAMS\gamslice.txt
          License Admin: Mohamed Ali Dekhil, dekhil.medali@gmail.com       
          Evaluation license: Not for commercial or production use
GAMS 34.3.0   Copyright (C) 1987-2021 GAMS Development. All rights reserved
--- Starting compilation
--- bchfcnet.gms(34) 2 Mb
--- . decl.gms(15) 2 Mb
--- bchfcnet.gms(38) 2 Mb
--- . p500x2988d.inc(6008) 3 Mb
--- bchfcnet.gms(67) 3 Mb
--- . equs.gms(20) 3 Mb
--- bchfcnet.gms(97) 3 Mb
--- call rm -f bchout_i.gdx startcut.txt startheur.txt cuthist.gdx agap.txt rgap.txt cntfail.txt
--- bchfcnet.gms(118) 3 Mb
--- Starting execution: elapsed 0:00:00.117
--- bchfcnet.gms(6066) 5 Mb
--- GDX File (execute_unload) C:\Users\dekhi\Desktop\gamsworld\FCNetLib\test\net.gdx
--- bchfcnet.gms(6157) 5 Mb
--- GDXin=C:\Users\dekhi\Desktop\gamsworld\FCNetLib\test\points\p500x2988d.gdx
--- bchfcnet.gms(6157) 5 Mb
--- GDX File (execute_load) C:\Users\dekhi\Desktop\gamsworld\FCNetLib\test\points\p500x2988d.gdx
--- Generating MIP model master
--- bchfcnet.gms(6161) 7 Mb
---   3,489 rows  5,977 columns  14,941 non-zeroes
---   2,988 discrete-columns
--- Executing CPLEX (Solvelink=2): elapsed 0:00:00.197

IBM ILOG CPLEX   34.3.0 rac355f3 Released Feb 25, 2021 WEI x86 64bit/MS Window

--- GAMS/Cplex Link licensed for continuous and discrete problems.

Reading parameter(s) from "C:\Users\dekhi\Desktop\gamsworld\FCNetLib\test\cplex.op2"
>>  mipstart 1
Finished reading from "C:\Users\dekhi\Desktop\gamsworld\FCNetLib\test\cplex.op2"

--- Space for names approximately 0.21 Mb
--- Use option 'names no' to turn use of names off
--- GMO memory 2.09 Mb (peak 2.14 Mb)
--- Dictionary memory 0.00 Mb
--- Cplex 20.1.0.0 link memory 0.15 Mb (peak 0.64 Mb)
--- Starting Cplex

Version identifier: 20.1.0.0 | 2020-11-10 | 9bedb6d68
CPXPARAM_Threads                                 1
CPXPARAM_MIP_Display                             4
CPXPARAM_TimeLimit                               3600
CPXPARAM_MIP_Tolerances_AbsMIPGap                0
CPXPARAM_MIP_Tolerances_MIPGap                   0
Generic callback                                 0x50
Processing 1 MIP starts.
MIP start 'm1' defined solution with objective 6.0000.
1 of 1 MIP starts provided solutions.
MIP start 'm1' defined initial solution with objective 6.0000.
Tried aggregator 1 time.
MIP Presolve eliminated 332 rows and 1 columns.
MIP Presolve added 664 rows and 0 columns.
Reduced MIP has 3820 rows, 5976 columns, and 12616 nonzeros.
Reduced MIP has 2988 binaries, 0 generals, 0 SOSs, and 0 indicators.
Presolve time = 0.02 sec. (91.40 ticks)
Probing time = 0.00 sec. (0.70 ticks)
Tried aggregator 1 time.
Detecting symmetries...
Reduced MIP has 3820 rows, 5976 columns, and 12616 nonzeros.
Reduced MIP has 2988 binaries, 0 generals, 0 SOSs, and 0 indicators.
Presolve time = 0.01 sec. (83.76 ticks)
Probing time = 0.00 sec. (0.70 ticks)
MIP emphasis: balance optimality and feasibility.
MIP search method: dynamic search.
Parallel mode: none, using 1 thread.
Tried aggregator 1 time.
LP Presolve eliminated 2656 rows and 2656 columns.
Aggregator did 332 substitutions.
Reduced LP has 832 rows, 2988 columns, and 6640 nonzeros.
Presolve time = 0.00 sec. (3.19 ticks)

Iteration log . . .
Iteration:     1   Dual objective     =             1.000000
Initializing dual steep norms . . .
Root relaxation solution time = 0.00 sec. (5.89 ticks)

        Nodes                                         Cuts/
   Node  Left     Objective  IInf  Best Integer    Best Bound    ItCnt     Gap

*     0+    0                            6.0000        0.0000           100.00%
Found incumbent of value 6.000000 after 0.05 sec. (189.97 ticks)
      0     0        2.1618     6        6.0000        2.1618       53   63.97%
      0     0        cutoff              6.0000                    168    0.00%
Elapsed time = 0.08 sec. (230.17 ticks, tree = 0.01 MB, solutions = 1)

Cover cuts applied:  5
Flow cuts applied:  1
Gomory fractional cuts applied:  2

Root node processing (before b&c):
  Real time             =    0.08 sec. (230.41 ticks)
Sequential b&c:
  Real time             =    0.00 sec. (0.00 ticks)
                          ------------
Total (root+branch&cut) =    0.08 sec. (230.41 ticks)

--- MIP status (101): integer optimal solution.
--- Cplex Time: 0.08sec (det. 230.43 ticks)

--- Fixing integer variables and solving final LP...

Version identifier: 20.1.0.0 | 2020-11-10 | 9bedb6d68
CPXPARAM_Advance                                 2
CPXPARAM_Threads                                 1
CPXPARAM_MIP_Display                             4
CPXPARAM_TimeLimit                               3600
CPXPARAM_MIP_Tolerances_AbsMIPGap                0
CPXPARAM_MIP_Tolerances_MIPGap                   0
Tried aggregator 1 time.
LP Presolve eliminated 3488 rows and 5977 columns.
All rows and columns eliminated.
Presolve time = 0.00 sec. (2.09 ticks)

--- Fixed MIP status (1): optimal.
--- Cplex Time: 0.00sec (det. 3.59 ticks)


Proven optimal solution
MIP Solution:            6.000000    (168 iterations, 0 nodes)
Final Solve:             6.000000    (0 iterations)

Best possible:           6.000000
Absolute gap:            0.000000
Relative gap:            0.000000

--- Reading solution for model master
*** Status: Normal completion
--- Job bchfcnet.gms Stop 02/09/22 13:38:12 elapsed 0:00:00.376
